
(set-logic ALL) 

(declare-datatype MyList ((Nil) (Cons (head Real) (tail MyList)) )) 
(declare-fun l0 () MyList) 
(declare-fun l1 () MyList) 
(declare-fun l2 () MyList) 
(declare-fun l3 () MyList) 
(declare-fun i0 () Real) 
(declare-fun i1 () Real) 
(assert (or (is-Cons l0) (= l0 Nil)) )
(assert (or (= l1 Nil) (= l1 l2)) )
(assert (and (= l0 l1) (is-Nil Nil) (= l2 l3)) )
(assert (is-Cons Nil) )
(assert (and (= l0 l0) (is-Nil Nil)) )
(assert (= l2 Nil) )
(assert (not (is-Cons l3)) )
(assert (and (is-Nil Nil) (= l1 l0) (= l3 l3)) )
(check-sat)
